p cnf 30 30
1 2 3 4 0
1 2 -3 6 0
1 -2 3 7 0
1 -2 -3 5 0
-1 2 3 4 0
8 9 10 1 2 3 11 0
8 9 10 1 2 -3 12 0
8 9 10 1 -2 3 23 0
8 9 10 1 -2 -3 13 0
8 9 10 -1 2 3 28 0
8 9 -10 1 2 3 14 0
8 9 -10 1 2 -3 15 0
8 9 -10 1 -2 3 24 0
8 9 -10 1 -2 -3 16 0
8 9 -10 -1 2 3 17 0
8 -9 10 1 2 3 25 0
8 -9 10 1 2 -3 18 0
8 -9 10 1 -2 3 24 0
8 -9 10 1 -2 -3 19 0
8 -9 10 -1 2 3 20 0
8 -9 -10 1 2 3 21 0
8 -9 -10 1 2 -3 26 0
8 -9 -10 1 -2 3 29 0
8 -9 -10 1 -2 -3 22 0
8 -9 -10 -1 2 3 30 0
-8 9 10 1 2 3 21 0
-8 9 10 1 2 -3 21 0
-8 9 10 1 -2 3 27 0
-8 9 10 1 -2 -3 22 0
-8 9 10 -1 2 3 14 0
